models/lp/03_banihashemi_intersections.lp
\* Banihashemi (2007) Intersection Sub-Problem *\
\* 13 intersections, 43 alternatives, IHSDM CPM (Banihashemi Eq 15) *\
\* Per-alternative coefficient = (avoided 20-yr crash+delay cost) - improvement_cost *\
\* Crash cost computed parametrically: see banihashemi_intersections.gms or .mod *\
\* Cost has no committed component (Cost_disc = total improvement cost) *\
\* Expected: Int 12 LTL most cost-effective (B/C ratio 11.5) *\
\* Banihashemi_Intersections *\
Maximize
OBJ: - 489537.178435 x_10_1 - 411858.008255 x_11_1 + 1046307.59871 x_12_1
 - 471146.351257 x_12_2 + 532639.543369 x_12_3 - 1466836.51295 x_13_0
 - 600000 x_13_1 - 430266.060644 x_13_2 - 889780.294284 x_13_3
 - 47485.5969672 x_13_4 + 847066.56183 x_1_1 - 1910462.21652 x_1_2
 + 17734.3767627 x_1_3 + 818018.439291 x_2_1 - 1936869.60064 x_2_2
 - 29006.693141 x_2_3 - 21355578.8634 x_3_1 - 15025870.7599 x_4_1
 + 743109.142152 x_5_1 - 1914059.87077 x_5_2 - 88633.4712639 x_5_3
 + 729487.361842 x_6_1 - 1926443.30742 x_6_2 - 110552.154128 x_6_3
 - 2741473.92516 x_7_0 - 500000 x_7_1 - 1415311.53369 x_7_2
 + 256452.38836 x_7_3 - 13914966.6839 x_8_1 + 736809.418291 x_9_1
 - 14028218.7106 x_9_2 - 2500702.11784 x_9_3
Subject To
MutEx_1: x_1_0 + x_1_1 + x_1_2 + x_1_3 <= 1
MutEx_10: x_10_0 + x_10_1 <= 1
MutEx_11: x_11_0 + x_11_1 <= 1
MutEx_12: x_12_0 + x_12_1 + x_12_2 + x_12_3 <= 1
MutEx_13: x_13_0 + x_13_1 + x_13_2 + x_13_3 + x_13_4 <= 1
MutEx_2: x_2_0 + x_2_1 + x_2_2 + x_2_3 <= 1
MutEx_3: x_3_0 + x_3_1 <= 1
MutEx_4: x_4_0 + x_4_1 <= 1
MutEx_5: x_5_0 + x_5_1 + x_5_2 + x_5_3 <= 1
MutEx_6: x_6_0 + x_6_1 + x_6_2 + x_6_3 <= 1
MutEx_7: x_7_0 + x_7_1 + x_7_2 + x_7_3 <= 1
MutEx_8: x_8_0 + x_8_1 <= 1
MutEx_9: x_9_0 + x_9_1 + x_9_2 + x_9_3 <= 1
TotalBudget: 600000 x_10_1 + 100000 x_12_1 + 600000 x_12_2 + 700000 x_12_3
 + 600000 x_13_1 + 600000 x_13_2 + 1200000 x_13_3 + 1200000 x_13_4
 + 300000 x_1_1 + 300000 x_1_3 + 300000 x_2_1 + 300000 x_2_3 + 400000 x_5_1
 + 400000 x_5_3 + 400000 x_6_1 + 400000 x_6_3 + 500000 x_7_1 + 600000 x_7_2
 + 1100000 x_7_3 + 600000 x_9_1 + 600000 x_9_3 <= 12000000
Binaries
x_10_0
x_10_1
x_11_0
x_11_1
x_12_0
x_12_1
x_12_2
x_12_3
x_13_0
x_13_1
x_13_2
x_13_3
x_13_4
x_1_0
x_1_1
x_1_2
x_1_3
x_2_0
x_2_1
x_2_2
x_2_3
x_3_0
x_3_1
x_4_0
x_4_1
x_5_0
x_5_1
x_5_2
x_5_3
x_6_0
x_6_1
x_6_2
x_6_3
x_7_0
x_7_1
x_7_2
x_7_3
x_8_0
x_8_1
x_9_0
x_9_1
x_9_2
x_9_3
End
